# Solution for model r5_t27_m6_6 Batch Number: 4
# Finished Task: 25 / 27
# Makespan: 606.0, Total Distance: 595.0, Total Time: 1.7459
# R O S F Batch
0 0 8 0.0 0.0 -1
1 1 20 0.0 0.0 -1
2 2 11 0.0 0.0 -1
3 3 16 0.0 0.0 -1
4 4 18 0.0 0.0 -1
5 1 13 458.0 478.0 2
6 0 14 227.0 250.0 0
7 0 6 185.0 214.0 0
8 0 7 34.0 66.0 0
9 0 -1 552.0 573.0 3
10 0 23 330.0 365.0 3
11 2 12 292.0 318.0 0
12 2 31 383.0 415.0 0
13 1 -1 478.0 510.0 2
14 0 10 264.0 298.0 0
15 4 17 455.0 491.0 2
16 3 21 122.0 160.0 0
17 4 -1 510.0 532.0 2
18 4 15 394.0 415.0 0
19 2 -1 584.0 606.0 3
20 1 22 197.0 225.0 0
21 3 24 172.0 197.0 0
22 1 29 240.0 265.0 0
23 0 9 444.0 476.0 3
24 3 25 250.0 282.0 0
25 3 28 381.0 415.0 0
26 -1 -1 -1.0 -1.0 3
27 -1 -1 -1.0 -1.0 2
28 3 30 508.0 532.0 2
29 1 5 395.0 415.0 1
30 3 -1 577.0 606.0 3
31 2 19 532.0 552.0 3
